,0,1
0,"[-1.  1. -1.  1. -1.  1.  1. -1.  1. -1.  1.  1.  1. -1. -1. -1. -1.  1.
  1.]",72.0
1,"[-1. -1. -1.  1. -1.  1. -1. -1. -1. -1.  1.  1.  1. -1.  1. -1.  1.  1.
  1.]",65.0
2,"[-1. -1.  1. -1. -1.  1. -1. -1.  1.  1.  1. -1.  1.  1.  1. -1.  1.  1.
 -1.]",75.0
3,"[ 1. -1. -1.  1. -1. -1. -1.  1. -1.  1. -1. -1.  1. -1.  1.  1. -1. -1.
  1.]",65.0
4,"[ 1. -1. -1. -1.  1.  1. -1.  1. -1. -1.  1.  1. -1.  1.  1.  1. -1. -1.
 -1.]",69.0
5,"[-1. -1. -1. -1.  1.  1. -1. -1.  1.  1.  1.  1. -1.  1.  1. -1.  1.  1.
  1.]",71.0
6,"[-1. -1.  1.  1. -1. -1. -1. -1.  1. -1. -1.  1. -1.  1. -1.  1.  1.  1.
  1.]",74.0
7,"[ 1.  1. -1. -1. -1. -1. -1.  1.  1. -1. -1.  1.  1. -1.  1.  1. -1. -1.
  1.]",77.0
8,"[-1.  1. -1.  1. -1. -1. -1. -1.  1. -1.  1.  1. -1.  1. -1.  1.  1. -1.
  1.]",77.0
9,"[ 1.  1.  1.  1.  1.  1.  1.  1. -1. -1. -1.  1. -1. -1. -1. -1.  1. -1.
  1.]",69.0
10,"[ 1. -1. -1. -1. -1. -1.  1. -1.  1.  1.  1. -1.  1. -1.  1. -1. -1. -1.
 -1.]",70.0
11,"[ 1. -1. -1. -1. -1. -1. -1. -1. -1. -1.  1.  1.  1.  1.  1.  1. -1.  1.
  1.]",67.0
12,"[ 1.  1. -1.  1.  1.  1.  1. -1.  1. -1.  1.  1. -1.  1. -1. -1. -1. -1.
  1.]",73.0
13,"[-1.  1.  1. -1. -1. -1.  1.  1.  1.  1. -1. -1.  1. -1. -1.  1. -1. -1.
  1.]",69.0
14,"[ 1. -1.  1. -1. -1. -1.  1. -1. -1.  1.  1.  1. -1. -1. -1.  1.  1.  1.
 -1.]",71.0
15,"[-1.  1. -1.  1.  1.  1.  1.  1. -1. -1. -1. -1.  1. -1.  1. -1. -1. -1.
  1.]",75.0
16,"[ 1. -1.  1. -1. -1. -1.  1.  1. -1.  1.  1. -1.  1. -1.  1. -1. -1. -1.
  1.]",72.0
17,"[ 1. -1. -1. -1.  1.  1. -1.  1.  1. -1.  1.  1. -1.  1. -1. -1. -1.  1.
  1.]",68.0
18,"[-1.  1. -1.  1. -1. -1.  1. -1. -1.  1. -1.  1.  1.  1. -1. -1.  1.  1.
 -1.]",72.0
19,"[ 1. -1.  1. -1. -1.  1.  1.  1. -1.  1.  1. -1.  1.  1. -1. -1.  1. -1.
  1.]",73.0
20,"[-1. -1.  1. -1. -1.  1.  1.  1.  1.  1. -1. -1.  1. -1. -1. -1.  1.  1.
 -1.]",75.0
21,"[ 1. -1.  1.  1. -1.  1. -1. -1. -1. -1. -1. -1.  1. -1.  1. -1. -1.  1.
  1.]",75.0
22,"[-1.  1. -1.  1.  1. -1. -1.  1.  1. -1.  1.  1. -1. -1. -1.  1. -1.  1.
  1.]",71.0
23,"[-1. -1.  1. -1. -1.  1. -1. -1. -1.  1.  1.  1.  1.  1.  1. -1. -1.  1.
  1.]",75.0
24,"[ 1. -1. -1. -1.  1.  1.  1.  1. -1.  1.  1.  1. -1.  1. -1. -1. -1.  1.
 -1.]",66.0
25,"[-1.  1. -1. -1.  1. -1. -1.  1.  1.  1.  1.  1.  1.  1. -1. -1.  1.  1.
  1.]",64.0
26,"[ 1. -1. -1. -1.  1.  1.  1.  1.  1.  1.  1. -1.  1. -1. -1. -1.  1. -1.
  1.]",71.0
27,"[ 1. -1. -1. -1.  1. -1. -1.  1. -1. -1.  1.  1.  1.  1. -1.  1.  1.  1.
  1.]",69.0
28,"[ 1.  1. -1.  1. -1. -1.  1. -1.  1.  1. -1. -1. -1.  1. -1. -1.  1. -1.
 -1.]",75.0
29,"[ 1.  1. -1. -1.  1.  1. -1. -1. -1.  1.  1. -1. -1.  1. -1. -1.  1.  1.
 -1.]",68.0
30,"[-1.  1. -1.  1.  1.  1.  1. -1.  1. -1. -1. -1. -1. -1. -1.  1.  1.  1.
  1.]",67.0
31,"[-1.  1.  1.  1.  1.  1.  1.  1.  1. -1.  1. -1.  1. -1. -1.  1. -1. -1.
  1.]",66.0
32,"[ 1.  1. -1. -1. -1.  1.  1.  1. -1.  1.  1. -1.  1. -1. -1.  1.  1.  1.
  1.]",69.0
33,"[-1. -1. -1.  1.  1. -1. -1. -1. -1. -1.  1.  1.  1.  1.  1.  1.  1. -1.
  1.]",73.0
34,"[ 1.  1. -1. -1.  1.  1.  1.  1. -1.  1. -1.  1.  1.  1. -1. -1. -1. -1.
 -1.]",71.0
35,"[-1. -1. -1. -1. -1. -1. -1.  1.  1. -1. -1. -1. -1.  1.  1. -1.  1.  1.
  1.]",70.0
36,"[-1. -1. -1.  1. -1.  1. -1. -1.  1. -1.  1. -1.  1. -1.  1.  1.  1. -1.
  1.]",74.0
37,"[-1.  1. -1.  1.  1.  1.  1.  1. -1. -1.  1. -1.  1. -1.  1. -1. -1.  1.
 -1.]",72.0
38,"[-1.  1. -1. -1.  1. -1. -1. -1.  1. -1.  1.  1. -1. -1.  1.  1. -1.  1.
  1.]",76.0
39,"[-1.  1.  1. -1. -1.  1. -1. -1.  1. -1.  1.  1.  1. -1.  1.  1. -1. -1.
  1.]",75.0
40,"[ 1.  1.  1. -1.  1. -1. -1.  1. -1.  1. -1.  1. -1. -1. -1.  1.  1. -1.
 -1.]",66.0
41,"[-1. -1.  1. -1.  1. -1. -1.  1. -1. -1.  1.  1.  1.  1. -1. -1. -1. -1.
  1.]",72.0
42,"[-1. -1. -1. -1.  1.  1. -1.  1.  1.  1. -1.  1. -1.  1. -1.  1.  1. -1.
  1.]",70.0
43,"[ 1. -1. -1.  1. -1. -1.  1.  1. -1.  1. -1.  1.  1.  1.  1.  1. -1. -1.
  1.]",73.0
44,"[ 1. -1.  1.  1.  1. -1.  1.  1.  1. -1.  1. -1. -1.  1. -1. -1. -1.  1.
 -1.]",68.0
45,"[ 1. -1.  1.  1. -1.  1. -1. -1.  1.  1.  1. -1.  1. -1. -1. -1.  1.  1.
 -1.]",67.0
46,"[ 1. -1.  1.  1.  1. -1. -1. -1. -1. -1. -1. -1.  1.  1. -1. -1.  1.  1.
  1.]",69.0
47,"[ 1. -1. -1. -1.  1. -1. -1.  1. -1. -1. -1.  1.  1. -1. -1.  1. -1.  1.
 -1.]",61.0
48,"[ 1.  1.  1.  1.  1.  1.  1. -1. -1.  1.  1.  1. -1. -1. -1.  1. -1.  1.
 -1.]",72.0
49,"[ 1. -1. -1. -1.  1.  1. -1. -1. -1.  1.  1. -1. -1.  1.  1.  1. -1. -1.
  1.]",73.0
50,"[-1. -1. -1. -1. -1.  1. -1.  1.  1. -1.  1.  1. -1. -1. -1.  1.  1.  1.
 -1.]",72.0
51,"[ 1. -1.  1. -1. -1. -1.  1.  1.  1.  1.  1.  1.  1.  1. -1. -1. -1.  1.
 -1.]",73.0
52,"[ 1. -1.  1.  1. -1.  1.  1.  1. -1. -1. -1. -1.  1.  1.  1. -1. -1.  1.
 -1.]",79.0
53,"[ 1. -1.  1.  1. -1. -1.  1. -1.  1. -1. -1.  1.  1.  1. -1.  1. -1.  1.
  1.]",69.0
54,"[-1. -1.  1.  1.  1. -1. -1. -1.  1. -1. -1. -1. -1.  1.  1.  1.  1. -1.
 -1.]",78.0
55,"[-1.  1.  1. -1. -1. -1. -1. -1.  1. -1.  1.  1.  1. -1.  1.  1.  1. -1.
  1.]",72.0
56,"[ 1.  1.  1. -1. -1. -1.  1.  1.  1. -1.  1. -1.  1.  1. -1. -1. -1.  1.
  1.]",74.0
57,"[-1.  1. -1. -1.  1. -1. -1.  1. -1.  1. -1.  1.  1. -1. -1. -1.  1.  1.
  1.]",73.0
58,"[ 1.  1.  1.  1. -1. -1. -1.  1.  1. -1. -1.  1.  1. -1.  1.  1.  1.  1.
 -1.]",65.0
59,"[-1.  1. -1. -1. -1. -1. -1. -1.  1.  1.  1. -1.  1. -1.  1.  1. -1. -1.
  1.]",67.0
60,"[ 1. -1.  1. -1.  1. -1. -1. -1.  1.  1. -1.  1.  1. -1.  1.  1. -1. -1.
  1.]",78.0
61,"[-1. -1.  1. -1.  1. -1. -1.  1.  1.  1. -1. -1. -1.  1. -1. -1.  1. -1.
 -1.]",67.0
62,"[-1.  1. -1. -1. -1.  1. -1.  1. -1. -1.  1. -1. -1.  1.  1.  1.  1.  1.
  1.]",74.0
63,"[ 1.  1. -1. -1.  1. -1.  1.  1. -1.  1. -1.  1.  1.  1. -1. -1.  1. -1.
 -1.]",66.0
64,"[ 1. -1.  1.  1.  1.  1. -1.  1. -1.  1. -1.  1. -1. -1. -1. -1.  1.  1.
  1.]",71.0
65,"[-1.  1.  1. -1. -1.  1.  1.  1. -1.  1. -1.  1.  1. -1. -1.  1.  1. -1.
  1.]",69.0
66,"[-1.  1.  1. -1.  1.  1.  1.  1.  1. -1.  1. -1. -1.  1. -1. -1.  1. -1.
 -1.]",72.0
67,"[-1.  1. -1. -1.  1. -1.  1.  1.  1. -1.  1.  1. -1. -1.  1. -1.  1. -1.
  1.]",71.0
68,"[ 1.  1.  1. -1. -1.  1.  1. -1. -1. -1. -1.  1.  1. -1.  1. -1.  1. -1.
  1.]",68.0
69,"[ 1.  1.  1.  1.  1. -1. -1. -1. -1.  1. -1.  1.  1.  1. -1. -1. -1. -1.
  1.]",71.0
70,"[-1.  1.  1.  1. -1. -1.  1.  1. -1.  1.  1. -1.  1. -1. -1. -1. -1. -1.
 -1.]",74.0
71,"[-1. -1. -1. -1.  1.  1. -1.  1. -1.  1.  1. -1. -1.  1.  1. -1.  1. -1.
  1.]",75.0
72,"[-1.  1. -1.  1.  1.  1. -1.  1. -1.  1.  1. -1. -1. -1. -1.  1. -1.  1.
 -1.]",73.0
73,"[-1. -1. -1.  1.  1. -1. -1.  1.  1.  1.  1. -1. -1. -1.  1.  1. -1. -1.
 -1.]",78.0
74,"[ 1.  1. -1.  1.  1. -1.  1. -1. -1. -1.  1.  1. -1.  1.  1. -1.  1. -1.
  1.]",73.0
75,"[ 1.  1.  1.  1. -1.  1. -1. -1. -1.  1. -1.  1.  1.  1. -1. -1.  1. -1.
  1.]",64.0
76,"[ 1.  1.  1. -1.  1.  1.  1.  1. -1.  1. -1.  1. -1. -1. -1. -1. -1. -1.
 -1.]",69.0
77,"[-1.  1.  1.  1. -1. -1.  1. -1.  1.  1. -1.  1.  1.  1. -1. -1. -1. -1.
  1.]",65.0
78,"[-1.  1. -1. -1.  1.  1. -1.  1. -1. -1. -1.  1. -1. -1. -1. -1.  1.  1.
 -1.]",66.0
79,"[ 1. -1.  1. -1.  1. -1. -1. -1.  1.  1. -1.  1.  1.  1.  1. -1. -1. -1.
 -1.]",73.0
80,"[ 1.  1. -1. -1. -1.  1. -1. -1.  1.  1. -1. -1.  1.  1. -1.  1.  1.  1.
  1.]",70.0
81,"[ 1. -1. -1.  1. -1.  1. -1.  1.  1. -1.  1.  1.  1. -1.  1. -1. -1. -1.
 -1.]",70.0
82,"[-1.  1. -1.  1. -1. -1.  1.  1.  1. -1. -1. -1.  1. -1. -1. -1.  1. -1.
 -1.]",71.0
83,"[ 1.  1.  1. -1.  1.  1. -1. -1.  1. -1.  1.  1.  1.  1.  1. -1.  1. -1.
  1.]",62.0
84,"[ 1.  1.  1. -1. -1.  1. -1. -1.  1.  1.  1.  1. -1. -1. -1.  1. -1.  1.
  1.]",70.0
85,"[ 1.  1. -1. -1.  1. -1.  1.  1. -1.  1.  1. -1. -1.  1. -1.  1.  1.  1.
 -1.]",73.0
86,"[ 1. -1.  1.  1.  1. -1.  1. -1.  1.  1.  1. -1. -1.  1.  1.  1.  1.  1.
  1.]",55.0
87,"[ 1. -1.  1. -1.  1.  1. -1. -1.  1. -1.  1. -1.  1. -1. -1. -1. -1.  1.
 -1.]",71.0
88,"[ 1.  1.  1.  1. -1.  1.  1. -1. -1.  1. -1. -1. -1. -1.  1. -1.  1. -1.
  1.]",75.0
89,"[ 1. -1.  1.  1.  1.  1.  1. -1.  1. -1.  1. -1.  1. -1. -1. -1.  1. -1.
  1.]",68.0
90,"[-1. -1.  1.  1. -1.  1. -1. -1.  1.  1. -1.  1. -1. -1.  1.  1.  1.  1.
  1.]",71.0
91,"[-1. -1. -1.  1. -1.  1. -1.  1. -1. -1. -1.  1.  1.  1.  1. -1.  1.  1.
 -1.]",75.0
92,"[-1. -1.  1.  1.  1. -1. -1.  1.  1. -1. -1.  1. -1.  1. -1. -1. -1.  1.
  1.]",74.0
93,"[-1.  1.  1.  1. -1. -1. -1. -1.  1. -1. -1.  1. -1.  1.  1.  1. -1.  1.
  1.]",70.0
94,"[-1.  1. -1. -1.  1. -1.  1.  1. -1.  1. -1. -1.  1.  1.  1.  1.  1. -1.
 -1.]",74.0
95,"[ 1.  1. -1. -1. -1.  1.  1. -1. -1. -1. -1.  1.  1. -1.  1. -1.  1.  1.
 -1.]",74.0
96,"[-1.  1. -1.  1.  1.  1. -1.  1. -1. -1.  1. -1.  1. -1.  1.  1. -1.  1.
 -1.]",71.0
97,"[-1. -1.  1.  1.  1.  1. -1.  1.  1. -1. -1. -1. -1. -1. -1. -1.  1. -1.
  1.]",75.0
98,"[-1.  1.  1.  1. -1. -1.  1. -1. -1.  1. -1. -1.  1.  1. -1.  1. -1.  1.
  1.]",69.0
99,"[ 1.  1. -1.  1. -1.  1.  1.  1. -1. -1.  1.  1. -1. -1.  1.  1.  1.  1.
 -1.]",65.0
